min: c;

c = 3.32999958554622 * u5_t4_h2 + 3.32999958554622 * u5_t7_h2 + 3.71142020069224 * u5_t4_h3 + 3.71142020069224 * u5_t7_h3 + 3.47528183267688 * u5_t1_h4 + 3.47528183267688 * u5_t3_h4 + 3.47528183267688 * u5_t4_h4 + 3.47528183267688 * u5_t7_h4 + 4.01906645984025 * u5_t1_h5 + 4.01906645984025 * u5_t3_h5 + 4.01906645984025 * u5_t4_h5 + 4.01906645984025 * u5_t7_h5 + 3.55980450490039 * u5_t1_h6 + 3.55980450490039 * u5_t3_h6 + 3.55980450490039 * u5_t4_h6 + 3.55980450490039 * u5_t6_h6 + 3.55980450490039 * u5_t7_h6 + 4.09373673120588 * u5_t1_h7 + 4.09373673120588 * u5_t3_h7 + 4.09373673120588 * u5_t4_h7 + 4.09373673120588 * u5_t6_h7 + 5.03435758113366 * u5_t1_h8 + 5.03435758113366 * u5_t3_h8 + 5.03435758113366 * u5_t4_h8 + 5.03435758113366 * u5_t6_h8 + 4.73035042531013 * u5_t1_h9 + 4.73035042531013 * u5_t3_h9 + 4.73035042531013 * u5_t4_h9 + 4.73035042531013 * u5_t6_h9 + 5.28887877683838 * u5_t1_h10 + 5.28887877683838 * u5_t3_h10 + 5.28887877683838 * u5_t4_h10 + 5.28887877683838 * u5_t6_h10 + 3.64113784881666 * u5_t1_h11 + 3.64113784881666 * u5_t3_h11 + 3.64113784881666 * u5_t4_h11 + 3.64113784881666 * u5_t6_h11 + 6.61934911228908 * u5_t1_h12 + 6.61934911228908 * u5_t3_h12 + 6.61934911228908 * u5_t4_h12 + 6.61934911228908 * u5_t6_h12 + 4.43821084519347 * u5_t1_h13 + 4.43821084519347 * u5_t3_h13 + 4.43821084519347 * u5_t4_h13 + 4.43821084519347 * u5_t6_h13 + 4.43821084519347 * u5_t8_h13 + 5.5502152988653 * u5_t1_h14 + 5.5502152988653 * u5_t3_h14 + 5.5502152988653 * u5_t4_h14 + 5.5502152988653 * u5_t6_h14 + 5.5502152988653 * u5_t8_h14 + 6.01603364717817 * u5_t1_h15 + 6.01603364717817 * u5_t3_h15 + 6.01603364717817 * u5_t4_h15 + 6.01603364717817 * u5_t6_h15 + 6.01603364717817 * u5_t8_h15 + 6.01603364717817 * u5_t9_h15 + 6.25721219912356 * u5_t1_h16 + 6.25721219912356 * u5_t3_h16 + 6.25721219912356 * u5_t4_h16 + 6.25721219912356 * u5_t5_h16 + 6.25721219912356 * u5_t6_h16 + 6.25721219912356 * u5_t8_h16 + 6.25721219912356 * u5_t9_h16 + 6.71996505501533 * u5_t1_h17 + 6.71996505501533 * u5_t5_h17 + 6.71996505501533 * u5_t6_h17 + 6.71996505501533 * u5_t8_h17 + 6.71996505501533 * u5_t9_h17 + 6.71996505501533 * u5_t10_h17 + 6.5354712182655 * u5_t1_h18 + 6.5354712182655 * u5_t2_h18 + 6.5354712182655 * u5_t5_h18 + 6.5354712182655 * u5_t6_h18 + 6.5354712182655 * u5_t9_h18 + 6.5354712182655 * u5_t10_h18 + 6.07735787951009 * u5_t1_h19 + 6.07735787951009 * u5_t2_h19 + 6.07735787951009 * u5_t5_h19 + 6.07735787951009 * u5_t9_h19 + 6.07735787951009 * u5_t10_h19 + 5.52958183224246 * u5_t1_h20 + 5.52958183224246 * u5_t2_h20 + 5.52958183224246 * u5_t5_h20 + 5.52958183224246 * u5_t9_h20 + 5.52958183224246 * u5_t10_h20 + 5.01883471106026 * u5_t2_h21 + 5.01883471106026 * u5_t5_h21 + 5.01883471106026 * u5_t9_h21 + 5.01883471106026 * u5_t10_h21 + 5.88225009243283 * u5_t2_h22 + 5.88225009243283 * u5_t5_h22 + 5.88225009243283 * u5_t9_h22 + 5.88225009243283 * u5_t10_h22 + 4.99615666492031 * u5_t5_h23 + 4.99615666492031 * u5_t9_h23 + 4.99615666492031 * u5_t10_h23;
0 <= u5_t1_h4 <= 1;
0 <= u5_t1_h5 <= 1;
0 <= u5_t1_h6 <= 1;
0 <= u5_t1_h7 <= 1;
0 <= u5_t1_h8 <= 1;
0 <= u5_t1_h9 <= 1;
0 <= u5_t1_h10 <= 1;
0 <= u5_t1_h11 <= 1;
0 <= u5_t1_h12 <= 1;
0 <= u5_t1_h13 <= 1;
0 <= u5_t1_h14 <= 1;
0 <= u5_t1_h15 <= 1;
0 <= u5_t1_h16 <= 1;
0 <= u5_t1_h17 <= 1;
0 <= u5_t1_h18 <= 1;
0 <= u5_t1_h19 <= 1;
0 <= u5_t1_h20 <= 1;
u5_t1_h4 + u5_t1_h5 + u5_t1_h6 + u5_t1_h7 + u5_t1_h8 + u5_t1_h9 + u5_t1_h10 + u5_t1_h11 + u5_t1_h12 + u5_t1_h13 + u5_t1_h14 + u5_t1_h15 + u5_t1_h16 + u5_t1_h17 + u5_t1_h18 + u5_t1_h19 + u5_t1_h20 = 1;
0 <= u5_t2_h18 <= 1;
0 <= u5_t2_h19 <= 1;
0 <= u5_t2_h20 <= 1;
0 <= u5_t2_h21 <= 1;
0 <= u5_t2_h22 <= 1;
u5_t2_h18 + u5_t2_h19 + u5_t2_h20 + u5_t2_h21 + u5_t2_h22 = 3;
0 <= u5_t3_h4 <= 1;
0 <= u5_t3_h5 <= 1;
0 <= u5_t3_h6 <= 1;
0 <= u5_t3_h7 <= 1;
0 <= u5_t3_h8 <= 1;
0 <= u5_t3_h9 <= 1;
0 <= u5_t3_h10 <= 1;
0 <= u5_t3_h11 <= 1;
0 <= u5_t3_h12 <= 1;
0 <= u5_t3_h13 <= 1;
0 <= u5_t3_h14 <= 1;
0 <= u5_t3_h15 <= 1;
0 <= u5_t3_h16 <= 1;
u5_t3_h4 + u5_t3_h5 + u5_t3_h6 + u5_t3_h7 + u5_t3_h8 + u5_t3_h9 + u5_t3_h10 + u5_t3_h11 + u5_t3_h12 + u5_t3_h13 + u5_t3_h14 + u5_t3_h15 + u5_t3_h16 = 1;
0 <= u5_t4_h2 <= 1;
0 <= u5_t4_h3 <= 1;
0 <= u5_t4_h4 <= 1;
0 <= u5_t4_h5 <= 1;
0 <= u5_t4_h6 <= 1;
0 <= u5_t4_h7 <= 1;
0 <= u5_t4_h8 <= 1;
0 <= u5_t4_h9 <= 1;
0 <= u5_t4_h10 <= 1;
0 <= u5_t4_h11 <= 1;
0 <= u5_t4_h12 <= 1;
0 <= u5_t4_h13 <= 1;
0 <= u5_t4_h14 <= 1;
0 <= u5_t4_h15 <= 1;
0 <= u5_t4_h16 <= 1;
u5_t4_h2 + u5_t4_h3 + u5_t4_h4 + u5_t4_h5 + u5_t4_h6 + u5_t4_h7 + u5_t4_h8 + u5_t4_h9 + u5_t4_h10 + u5_t4_h11 + u5_t4_h12 + u5_t4_h13 + u5_t4_h14 + u5_t4_h15 + u5_t4_h16 = 3;
0 <= u5_t5_h16 <= 1;
0 <= u5_t5_h17 <= 1;
0 <= u5_t5_h18 <= 1;
0 <= u5_t5_h19 <= 1;
0 <= u5_t5_h20 <= 1;
0 <= u5_t5_h21 <= 1;
0 <= u5_t5_h22 <= 1;
0 <= u5_t5_h23 <= 1;
u5_t5_h16 + u5_t5_h17 + u5_t5_h18 + u5_t5_h19 + u5_t5_h20 + u5_t5_h21 + u5_t5_h22 + u5_t5_h23 = 2;
0 <= u5_t6_h6 <= 1;
0 <= u5_t6_h7 <= 1;
0 <= u5_t6_h8 <= 1;
0 <= u5_t6_h9 <= 1;
0 <= u5_t6_h10 <= 1;
0 <= u5_t6_h11 <= 1;
0 <= u5_t6_h12 <= 1;
0 <= u5_t6_h13 <= 1;
0 <= u5_t6_h14 <= 1;
0 <= u5_t6_h15 <= 1;
0 <= u5_t6_h16 <= 1;
0 <= u5_t6_h17 <= 1;
0 <= u5_t6_h18 <= 1;
u5_t6_h6 + u5_t6_h7 + u5_t6_h8 + u5_t6_h9 + u5_t6_h10 + u5_t6_h11 + u5_t6_h12 + u5_t6_h13 + u5_t6_h14 + u5_t6_h15 + u5_t6_h16 + u5_t6_h17 + u5_t6_h18 = 2;
0 <= u5_t7_h2 <= 1;
0 <= u5_t7_h3 <= 1;
0 <= u5_t7_h4 <= 1;
0 <= u5_t7_h5 <= 1;
0 <= u5_t7_h6 <= 1;
u5_t7_h2 + u5_t7_h3 + u5_t7_h4 + u5_t7_h5 + u5_t7_h6 = 1;
0 <= u5_t8_h13 <= 1;
0 <= u5_t8_h14 <= 1;
0 <= u5_t8_h15 <= 1;
0 <= u5_t8_h16 <= 1;
0 <= u5_t8_h17 <= 1;
u5_t8_h13 + u5_t8_h14 + u5_t8_h15 + u5_t8_h16 + u5_t8_h17 = 3;
0 <= u5_t9_h15 <= 1;
0 <= u5_t9_h16 <= 1;
0 <= u5_t9_h17 <= 1;
0 <= u5_t9_h18 <= 1;
0 <= u5_t9_h19 <= 1;
0 <= u5_t9_h20 <= 1;
0 <= u5_t9_h21 <= 1;
0 <= u5_t9_h22 <= 1;
0 <= u5_t9_h23 <= 1;
u5_t9_h15 + u5_t9_h16 + u5_t9_h17 + u5_t9_h18 + u5_t9_h19 + u5_t9_h20 + u5_t9_h21 + u5_t9_h22 + u5_t9_h23 = 1;
0 <= u5_t10_h17 <= 1;
0 <= u5_t10_h18 <= 1;
0 <= u5_t10_h19 <= 1;
0 <= u5_t10_h20 <= 1;
0 <= u5_t10_h21 <= 1;
0 <= u5_t10_h22 <= 1;
0 <= u5_t10_h23 <= 1;
u5_t10_h17 + u5_t10_h18 + u5_t10_h19 + u5_t10_h20 + u5_t10_h21 + u5_t10_h22 + u5_t10_h23 = 1;
